112
                
N   0.894792   -1.178968    2.341600
C   0.459589   -2.428160    1.828655
C   1.035939   -2.992706    0.686535
C   0.548982   -4.174810    0.156949
C  -0.543049   -4.816452    0.736638
C  -1.103607   -4.283010    1.895651
C  -0.586158   -3.114401    2.441856
C   2.228304   -0.779323    2.022363
C   2.467740    0.147675    1.018922
C   3.759521    0.513167    0.668106
C   4.845337   -0.065940    1.319474
C   4.609487   -1.006573    2.326804
C   3.315781   -1.355459    2.676132
C  -0.053677   -0.144734    2.552361
C  -1.341070   -0.193697    2.030910
C  -2.256211    0.832775    2.237085
C  -1.892341    1.957337    2.968917
C  -0.595434    2.023389    3.485569
C   0.303042    0.990879    3.291113
H   1.864724   -2.493200    0.198393
H   0.991224   -4.607093   -0.733899
H  -1.935986   -4.766649    2.391823
H  -1.029278   -2.707193    3.343993
H   1.641838    0.577478    0.466877
H   3.876346    1.214518   -0.145238
H   5.462558   -1.450225    2.827592
H   3.137180   -2.087078    3.457040
H  -1.648226   -1.046187    1.442601
H  -3.237939    0.738220    1.790408
H  -0.312299    2.900728    4.056492
H   1.301795    1.065503    3.706738
O  -0.987804   -5.933107    0.101639
C  -2.144878   -6.559028    0.603454
O   6.149679    0.193065    1.052208
C   6.534443    1.199008    0.121551
C   6.917859    0.604944   -1.228849
C   5.765364    0.067769   -2.081386
C   4.950693    1.159519   -2.778571
C   3.748273    0.625366   -3.560663
C   2.602433    0.147509   -2.673475
O   2.097094    1.177235   -1.845271
C   1.159745    2.034009   -2.450512
C   0.493216    2.835866   -1.346946
C   1.465773    3.669809   -0.519960
C   2.316136    4.637297   -1.337151
O  -2.701724    3.013567    3.241344
C  -3.990923    3.052276    2.651142
C  -3.964140    3.508431    1.196116
C  -5.335054    3.342395    0.529423
C  -5.609410    1.926738    0.007326
C  -4.897824    1.630298   -1.311967
C  -5.117933    0.205838   -1.808382
O  -4.662093   -0.799511   -0.921731
C  -3.263784   -0.914663   -0.790854
C  -2.535921   -1.412299   -2.037239
C  -3.219179   -2.617279   -2.681305
C  -3.385401   -3.805742   -1.737690
H  -3.001212   -5.874504    0.602148
H  -2.351163   -7.391491   -0.066687
H  -1.988143   -6.944845    1.617211
H   5.763609    1.970124    0.036264
H   7.412270    1.670150    0.569585
H   7.635901   -0.197354   -1.031723
H   7.461276    1.374589   -1.792187
H   5.121390   -0.564746   -1.462627
H   6.179420   -0.594031   -2.850948
H   4.594851    1.903318   -2.056475
H   5.613897    1.702299   -3.462426
H   4.060465   -0.208999   -4.201019
H   3.374734    1.402164   -4.237403
H   1.787470   -0.274145   -3.272407
H   2.942829   -0.631686   -1.985618
H   1.641392    2.705233   -3.177771
H   0.406514    1.438712   -2.981114
H   2.114806    2.992510    0.043708
H   0.888094    4.225519    0.227575
H   3.015746    4.105978   -1.988287
H   2.905297    5.285542   -0.684089
H   1.697278    5.282803   -1.969727
H  -4.549648    3.768878    3.256944
H  -4.490095    2.082522    2.765129
H  -3.655418    4.558397    1.178851
H  -3.199376    2.963811    0.635187
H  -6.117911    3.628850    1.243328
H  -5.423632    4.047886   -0.304013
H  -5.317263    1.178830    0.753066
H  -6.688552    1.793049   -0.135234
H  -5.279532    2.307331   -2.087390
H  -3.829047    1.848690   -1.232725
H  -6.188177    0.010053   -1.920531
H  -4.661798    0.079593   -2.800799
H  -3.120437   -1.639032    0.015871
H  -2.814266    0.031606   -0.463133
H  -2.628155   -2.918495   -3.554369
H  -4.200305   -2.312642   -3.060250
H  -4.081876   -3.570045   -0.929425
H  -2.431332   -4.105366   -1.292821
H  -3.781940   -4.672669   -2.272322
C  -0.485207    1.976611   -0.529849
C  -0.788239    3.534641   -1.842732
O  -1.624964    2.566291   -1.189437
H  -0.492314    2.183555    0.544013
H  -0.436514    0.899444   -0.698146
H  -0.633207   -1.257342   -0.856334
H  -0.632859   -2.613374   -2.006455
C  -1.020393   -1.607621   -1.820613
C  -2.077272   -0.336380   -3.046607
O  -0.695723   -0.701689   -2.887031
H  -2.415954   -0.474206   -4.079562
H  -2.245094    0.698155   -2.728382
H  -0.957014    3.549740   -2.924991
H  -0.944988    4.539821   -1.434643
