112

N        -2.39396271220679   -5.91234318377927   -4.81253143863131
C        -3.16554751574094   -6.22567981442717   -5.93697669167132
C        -2.80959402249955   -5.76351609656324   -7.20281977543163
C        -3.58740454116769   -6.09365971742434   -8.32577528928679
C        -4.72355366036151   -6.86439942388665   -8.17248946663230
C        -5.09540287912878   -7.31503467485930   -6.90694313246160
C        -4.31187778103236   -6.99888654576503   -5.79336023490444
C        -1.00900005021170   -5.76164475377315   -4.91239193547446
C        -0.35216400280456   -4.81454134543344   -4.12980850874100
C         1.03741030884771   -4.63621049852771   -4.23266750539331
C         1.76555232577008   -5.38946490883488   -5.13537678517438
C         1.11823957961318   -6.35094291678477   -5.90744778487585
C        -0.26294561763795   -6.54596149452122   -5.78674237235727
C        -3.03687122506775   -5.56700752599511   -3.61473764553205
C        -4.18341629781068   -4.79207901616030   -3.62576335742822
C        -4.79265145065834   -4.39558572648385   -2.42637898535946
C        -4.22178775025494   -4.77433701814100   -1.20968106090446
C        -3.09090370961599   -5.56629296524365   -1.19176123425989
C        -2.49658040001669   -5.98393631545777   -2.39053092590446
H        -1.93110384385613   -5.14982169461204   -7.32809647861239
H        -3.27925345401749   -5.71925427399098   -9.29059393271807
H        -5.98467066778671   -7.91701684610342   -6.80586222476600
H        -4.59935575605009   -7.35381516587512   -4.81511346404279
H        -0.91163360930957   -4.21346633570969   -3.43162440164653
H         1.49579504266498   -3.88502087216863   -3.60859117742505
H         1.69807096967641   -6.94103635484894   -6.59990050304015
H        -0.75044774663932   -7.30024548393737   -6.38506030628480
H        -4.61032655998295   -4.47953017101316   -4.56778250536301
H        -5.68650742635646   -3.79098432958219   -2.45981821441591
H        -2.67392008993054   -5.86716528139526   -0.24178711248406
H        -1.61382361033246   -6.60334230749325   -2.37507437727204
O        -5.56627102136536   -7.24506260181930   -9.21131364466127
C        -5.23516626186235   -6.82240939565356  -10.50105249484690
O         3.13161331322140   -5.26046997322129   -5.36913040820332
C         3.85845976074763   -4.34072492721411   -4.59869538646168
C         4.21989612671883   -4.88574068423729   -3.20201654822789
C         4.03327514158595   -3.87863632921134   -2.06820434530374
C         4.88069952929728   -2.61761420702318   -2.22245705924104
C         4.77778872439825   -1.67466233181248   -1.02043375167787
C         3.34776780205047   -1.21310716802824   -0.74026958911425
O         2.82314689915165   -0.56228369928524   -1.87694243940474
C         1.41959884627920   -0.62336109704862   -1.97868788577777
C         0.96803846690011    0.00515173796974   -3.29388731213684
C        -0.55541396596660    0.06616181454306   -3.40215082853231
C        -1.23461516903638   -1.29838426906596   -3.36280422198331
O        -4.75761239146298   -4.39952831407076    0.02756502950080
C        -5.15000282171103   -3.05579250903910    0.15272511112263
C        -4.00330897140423   -2.08550739879167   -0.14421720183937
C        -4.38003970920608   -0.62680080545294    0.09214362976169
C        -3.24123863899400    0.29878118436673   -0.32734194656344
C        -3.53728116183721    1.77382714251172   -0.06544505605689
C        -2.36164006127802    2.65179290082059   -0.48462922642511
O        -1.26753056839634    2.37901103171326    0.36320944243906
C        -0.03443519096495    2.83015892279615   -0.13156375646724
C         1.07814291473301    2.53343839429947    0.87542428774890
C         2.43667373322184    2.75667274102129    0.20480647035378
C         3.63978260353185    2.70726760002903    1.14186513367285
H        -5.23609699445902   -5.72827655171718  -10.58596806481630
H        -4.25432919185287   -7.20017489142980  -10.81595469305638
H        -6.00291943795972   -7.23120107446476  -11.15987170081847
H         4.76729369603126   -4.14552660933556   -5.17756211755842
H         3.30689952549036   -3.39638082286654   -4.51390777060128
H         5.25018653253473   -5.24826825294695   -3.20646328982129
H         3.56994450714207   -5.74259396087102   -3.01028166836838
H         4.28770817332354   -4.36722761538111   -1.12296311882207
H         2.97880929750210   -3.60599678398820   -2.02431607486514
H         5.92813133975580   -2.90134363288182   -2.35286187268368
H         4.57103920698934   -2.07118950355349   -3.11330898362085
H         5.39426957872737   -0.79435798794541   -1.21129189898706
H         5.15287699281800   -2.16947367859329   -0.12160756412131
H         2.72167934125960   -2.07380361029258   -0.47362952990888
H         3.34445348515509   -0.52214604249338    0.11892235988626
H         1.08825050755036   -1.67136310055582   -1.94829896022404
H         0.95042784305940   -0.09173653065756   -1.13338680055444
H        -0.80286411184633    0.56001418852710   -4.34520499064638
H        -0.93605552608953    0.68968994409262   -2.58760028738706
H        -1.17188279888066   -1.74385744808519   -2.37345916447223
H        -0.77784845205588   -1.97749735439046   -4.07742274308334
H        -2.28716433063244   -1.20144971476731   -3.61896778102490
H        -5.47733140731903   -2.95288764054617    1.19324982757762
H        -6.00696644108719   -2.82542834233627   -0.49787742376486
H        -3.15195887598032   -2.35611088849715    0.48457333226601
H        -3.70341253836746   -2.22630588114308   -1.18524803547617
H        -5.27736876034739   -0.38386644438883   -0.48279762665303
H        -4.61154390132418   -0.47267114073076    1.14901329710917
H        -2.33562897624999    0.02554659443950    0.21664552313084
H        -3.04713614689911    0.15557857643500   -1.39208423842941
H        -4.42396438915999    2.08478896106800   -0.62117348646915
H        -3.72304432707128    1.92884003091291    0.99830982489457
H        -2.09023400626771    2.43710453438322   -1.52955152750977
H        -2.62661639054666    3.72002443333843   -0.41837283604764
H        -0.06955018322958    3.91795756739044   -0.31560013227093
H         0.19326576216010    2.33527273764766   -1.09056214617766
H         2.41962431839473    3.72478414492480   -0.30354021522558
H         2.55299551660822    1.98557358178715   -0.56089658011369
H         3.67426161739814    3.57999270540692    1.78895275646638
H         4.55563226700967    2.68571465100385    0.55561229149073
H         3.61425487173073    1.82092371296684    1.76934056996979
C         1.66867222449703   -0.51901852343810   -4.55913444958836
C         1.65356812169651    1.33350194263947   -3.66294512768284
O         2.10852675815893    0.79870648128133   -4.90291912012280
H         1.03050942912038   -0.95745371465415   -5.32828806266479
H         2.51661040053276   -1.17641223615774   -4.35409306100249
H        -0.01180088139530    0.70459610574474    1.48262950619578
H         1.76511618391062    0.49482621697633    1.55001439177283
C         0.94380806582211    1.20838337429419    1.64563875426655
C         0.86781769494556    3.16680071125358    2.26148634958668
O         0.96305645837905    1.89435432942006    2.89899508537120
H         1.62412029328536    3.86810911976317    2.61847071157034
H        -0.12990967802881    3.59852834949882    2.38657482893437
H         2.49204150221949    1.59996779857879   -3.01314809847656
H         0.99708645944648    2.19848448510167   -3.80187534065016
