112
             
N   0.806747   -1.231474    1.996105
C   0.362784   -2.551419    1.785526
C   0.829891   -3.273565    0.675291
C   0.333289   -4.526887    0.412288
C  -0.635513   -5.100780    1.252483
C  -1.079511   -4.394362    2.377549
C  -0.580761   -3.130299    2.636997
C   2.149574   -0.909147    1.729929
C   2.453159    0.203477    0.943052
C   3.760990    0.513006    0.634673
C   4.803053   -0.279867    1.131648
C   4.492640   -1.407624    1.918160
C   3.187738   -1.728275    2.202859
C  -0.100721   -0.227003    2.327938
C  -1.428422   -0.305130    1.885430
C  -2.327343    0.703783    2.141655
C  -1.925317    1.826513    2.882357
C  -0.598944    1.895158    3.355676
C   0.300849    0.896543    3.078906
H   1.552841   -2.822502    0.005476
H   0.662648   -5.090179   -0.452445
H  -1.803353   -4.823056    3.057933
H  -0.919289   -2.587498    3.512316
H   1.662049    0.792229    0.498885
H   3.934036    1.338301   -0.039878
H   5.310865   -2.010242    2.293095
H   2.957762   -2.595665    2.811521
H  -1.739569   -1.150682    1.289112
H  -3.324569    0.624995    1.731020
H  -0.310721    2.757449    3.944483
H   1.315292    0.960404    3.454148
O  -1.067814   -6.310202    0.893338
C  -2.066165   -6.950202    1.674041
O   6.101014   -0.078981    0.916250
C   6.600509    1.031308    0.152871
C   6.994582    0.590943   -1.247972
C   5.837128    0.191096   -2.165100
C   5.046355    1.371918   -2.732213
C   3.835413    0.943281   -3.564202
C   2.678134    0.406713   -2.729409
O   2.144838    1.381501   -1.847987
C   1.208765    2.257235   -2.434690
C   0.486925    2.976748   -1.310317
C   1.401388    3.826045   -0.433078
C   2.175985    4.900459   -1.189643
O  -2.706075    2.855776    3.185599
C  -4.025869    2.944374    2.624133
C  -3.997919    3.454940    1.189916
C  -5.369681    3.308960    0.517353
C  -5.621589    1.923720   -0.090235
C  -4.898560    1.716418   -1.421372
C  -5.091432    0.320449   -2.002546
O  -4.654335   -0.727285   -1.151211
C  -3.267552   -0.835713   -0.966398
C  -2.474091   -1.314424   -2.181429
C  -3.122081   -2.509291   -2.875821
C  -3.349687   -3.701926   -1.950195
H  -2.983787   -6.355562    1.699493
H  -2.261448   -7.897758    1.179591
H  -1.709407   -7.136897    2.690814
H   5.883176    1.854403    0.154516
H   7.481002    1.361615    0.704526
H   7.690911   -0.246185   -1.142431
H   7.564137    1.409593   -1.703525
H   5.175811   -0.502616   -1.634033
H   6.244164   -0.382105   -3.004776
H   4.705371    2.042341   -1.934304
H   5.719182    1.971824   -3.354443
H   4.133253    0.168141   -4.280319
H   3.481038    1.786795   -4.165997
H   1.876778    0.015224   -3.365191
H   3.011163   -0.412439   -2.084914
H   1.698295    2.976366   -3.106035
H   0.486847    1.678183   -3.023448
H   2.102995    3.165658    0.088489
H   0.788764    4.294340    0.346268
H   2.913831    4.464642   -1.868189
H   2.713463    5.553057   -0.498443
H   1.509230    5.532577   -1.784640
H  -4.542584    3.646781    3.277295
H  -4.533393    1.979618    2.718475
H  -3.690215    4.504221    1.211494
H  -3.233762    2.930802    0.607532
H  -6.156271    3.542953    1.244693
H  -5.465837    4.063026   -0.269911
H  -5.327283    1.134618    0.612571
H  -6.697299    1.786212   -0.245699
H  -5.288816    2.430144   -2.157343
H  -3.833557    1.946639   -1.324811
H  -6.154065    0.120207   -2.158652
H  -4.601047    0.247962   -2.983292
H  -3.158590   -1.577387   -0.168266
H  -2.834156    0.107987   -0.606264
H  -2.484259   -2.805966   -3.716289
H  -4.077908   -2.197634   -3.308092
H  -4.117335   -3.480226   -1.205351
H  -2.432031   -3.986518   -1.421793
H  -3.683256   -4.574466   -2.515552
C  -0.453214    2.028536   -0.548996
C  -0.825399    3.635354   -1.784014
O  -1.618332    2.606619   -1.159931
H  -0.459270    2.172494    0.536268
H  -0.356315    0.967766   -0.790876
H  -0.660205   -1.218816   -0.857369
H  -0.566593   -2.500888   -2.094012
C  -0.974811   -1.509537   -1.869982
C  -1.956868   -0.214616   -3.135904
O  -0.582460   -0.534993   -2.841005
H  -2.185556   -0.361958   -4.195921
H  -2.186717    0.812484   -2.836332
H  -0.996754    3.675238   -2.863931
H  -1.029217    4.617240   -1.344327
