79

N          0.85977       -1.18168        2.25528
C          0.44822       -2.49657        1.82109
C          1.00979       -3.09459        0.68023
C          0.54357       -4.32551        0.21125
C         -0.49442       -4.98709        0.86572
C         -1.03107       -4.43205        2.02629
C         -0.55954       -3.20066        2.50124
C          2.22218       -0.77368        2.02014
C          2.50120        0.34407        1.22407
C          3.81394        0.69966        0.90174
C          4.88103       -0.05423        1.37134
C          4.61646       -1.14868        2.20163
C          3.30113       -1.51300        2.51884
C         -0.12468       -0.17518        2.59225
C         -1.41111       -0.17803        2.02502
C         -2.33430        0.83951        2.30028
C         -1.98717        1.89108        3.14469
C         -0.72361        1.89738        3.73538
C          0.19691        0.87855        3.46468
H          1.78922       -2.58862        0.11574
H          0.97795       -4.75614       -0.68733
H         -1.81731       -4.92765        2.58550
H         -0.99367       -2.78497        3.40796
H          1.68645        0.91925        0.79511
H          3.94257        1.55369        0.25004
H          5.44266       -1.73937        2.58978
H          3.12298       -2.37951        3.15039
H         -1.70223       -0.95181        1.31867
H         -3.30475        0.78707        1.81818
H         -0.44390        2.71013        4.40120
H          1.17507        0.91960        3.93829
O         -0.88535       -6.15962        0.28135
C         -2.13186       -6.69428        0.70901
O          6.20004        0.14512        1.08727
C          6.59188        1.14622        0.14546
C          6.94919        0.52304       -1.20702
C          5.75752        0.04467       -2.04546
C          4.99279        1.19456       -2.71218
C          3.82735        0.70950       -3.58568
C          2.63143        0.18168       -2.79295
O          2.08109        1.17846       -1.93227
C          1.15910        2.05314       -2.58349
C          0.48938        2.93686       -1.52863
C          1.44136        3.77157       -0.66634
C          2.27105        4.74478       -1.48717
O         -2.77975        2.95886        3.46263
C         -3.98715        3.09673        2.72194
H         -3.79157        3.14825        1.64522
H         -2.93551       -5.95440        0.62504
H         -2.38072       -7.52994        0.04775
H         -2.05874       -7.08447        1.72881
H          5.89840        1.98556        0.05666
H          7.51076        1.58271        0.55587
H          7.59799       -0.34302       -1.02569
H          7.53248        1.24477       -1.79137
H          5.09185       -0.57393       -1.43812
H          6.14509       -0.60954       -2.83717
H          4.63060        1.90954       -1.96753
H          5.68986        1.74537       -3.35651
H          4.17938       -0.07101       -4.27049
H          3.50157        1.55211       -4.20618
H          1.86117       -0.20601       -3.47000
H          2.93978       -0.65651       -2.16051
H          1.68792        2.66392       -3.32191
H          0.40817        1.45764       -3.11797
H          2.11414        3.12167       -0.09950
H          0.87249        4.34339        0.07789
H          2.95888        4.21797       -2.15530
H          2.87230        5.37579       -0.82473
H          1.63603        5.39564       -2.09553
H         -4.45655        4.03936        3.01940
H         -4.68552        2.28754        2.95897
C         -0.56666        2.16394       -0.71234
C         -0.73698        3.69976       -2.06923
O         -1.64095        2.70808       -1.52235
H         -0.67828        2.46554        0.33319
H         -0.52831        1.07232       -0.77348
H         -0.82152        3.76798       -3.15755
H         -0.93094        4.68376       -1.62947



