79
                                                                     
N            0.76101299866163       -1.47245729008284        1.78642197177883
C            0.31637064131885       -2.78010171703921        1.65255696580794
C            0.93167471785673       -3.66497262349475        0.75288597083715
C            0.47791166078619       -4.95147742130079        0.62628021393149
C           -0.60488327436850       -5.41492597734652        1.39451039349993
C           -1.22099992228467       -4.53171003394151        2.28986154689751
C           -0.76758582896659       -3.23763395478754        2.41112578791278
C            2.09609617185710       -1.14386191302388        1.59794224884016
C            2.43921909962875        0.07882432137070        1.00689665994022
C            3.75102568892877        0.40858759443656        0.77017145564705
C            4.78468728755741       -0.46757876921505        1.12895205988659
C            4.43706679920431       -1.68285682158978        1.75422836200249
C            3.12747399626177       -2.01905492503295        1.97627125564490
C           -0.15048803726711       -0.45218668188477        2.05855087363596
C           -1.39362470602878       -0.41362526788186        1.41891341325421
C           -2.25500660996800        0.64166086700935        1.61651895275315
C           -1.91305398895878        1.67844068490674        2.49556564823315
C           -0.69159130098175        1.59883616658128        3.19090253493243
C            0.18272756555468        0.56959904742833        2.95936494728733
H            1.74609394474010       -3.31686571753399        0.13644103024548
H            0.93219541376858       -5.63453466669464       -0.07286618268170
H           -2.04561160471774       -4.85575796812861        2.90352096377444
H           -1.23408654021479       -2.57259154785074        3.12214387882258
H            1.66824684638611        0.75582604839903        0.67622084123469
H            3.94807205913297        1.34063140303137        0.27019047341211
H            5.23553548319471       -2.34126409084746        2.05610686387911
H            2.88452436495906       -2.94861484829887        2.46801584326829
H           -1.65526263708634       -1.19752780193591        0.72371223349759
H           -3.18210255322699        0.67186408452520        1.06895692052421
H           -0.45661370325102        2.38034695260576        3.89543528210013
H            1.12529926871200        0.52664420548724        3.48348658195491
O           -0.95958045780253       -6.68788691948590        1.19605027644284
C           -2.05087328147339       -7.23524329018784        1.90746854198428
O            6.09053651417596       -0.26839862397734        0.95411893030192
C            6.61552834141818        0.85323801249490        0.25700759377569
C            6.94219778221500        0.49636833037957       -1.19726067286173
C            5.71939519446728        0.25538137871108       -2.08467646785722
C            5.02200731717133        1.54064967197700       -2.53032108146602
C            3.82428979194992        1.26876244441775       -3.44343001073835
C            2.60887573754119        0.72230245075054       -2.68756343226644
O            2.04451640288768        1.64589269679013       -1.77739180598445
C            1.11938656656532        2.54434654803982       -2.35514431288640
C            0.56524274276663        3.43353720786459       -1.24502179103281
C            1.62892496005201        4.34985879693228       -0.64345823286139
C            2.18926338587306        5.36926986393409       -1.62977756587058
O           -2.65103031013298        2.76138590319991        2.73210164571573
C           -3.79384655602272        3.01664810864921        1.93681654424877
H           -3.51443252597742        3.08312318554247        0.88150617008689
H           -2.97975201861943       -6.70496160381546        1.68099948368201
H           -2.13175096665810       -8.26636133863887        1.56967672043941
H           -1.87082547486984       -7.22031050450966        2.98567795495142
H            5.95191738570618        1.71714572735668        0.32016727770955
H            7.54605625954889        1.09170307203732        0.78041348861793
H            7.55418212261969       -0.40714456983299       -1.18104088164502
H            7.54570661899135        1.30389106834013       -1.61365690696649
H            5.01729974495962       -0.39790654238305       -1.56272337458110
H            6.05063854985226       -0.27744988697137       -2.97855009399282
H            4.67546401609775        2.11736035856913       -1.67150331348348
H            5.74376937247343        2.15648596196548       -3.07074993932949
H            4.10306307370032        0.54826107388698       -4.21364319214027
H            3.53825425105194        2.19522801859832       -3.94440045086248
H            1.84557749736245        0.39258337450757       -3.40545408889896
H            2.89992289005778       -0.13831831998355       -2.07853991062260
H            1.58816483439818        3.15819746102329       -3.13390308128325
H            0.29834683468876        1.97692790459978       -2.82134448654287
H            2.43628353545865        3.72236985344931       -0.26050646244803
H            1.18485347939791        4.88014725974064        0.20189938062759
H            2.78520703898732        4.88891625401351       -2.40082012269086
H            2.82724132575578        6.07599057357828       -1.10544994737818
H            1.38612999514276        5.92394150553503       -2.10884951942988
H           -4.17582898006154        3.97699264757317        2.27681132756317
H           -4.56135529121163        2.25171196324746        2.08009683618383
C           -0.24626362019280        2.63949441043427       -0.20814600175990
C           -0.78634122055215        4.09952784492370       -1.56167845966146
O           -1.45655671275129        3.29050883743875       -0.58755310007539
H            0.01270949809846        2.83581280879825        0.83633037266559
H           -0.29749824357800        1.56061335356434       -0.37943372130667
H           -1.17996420377266        3.93338894179947       -2.56717973617568
H           -0.85135649779168        5.16039538745191       -1.31022637321211
