79
                                                                     
N            0.96333573583030       -1.13337858077443        1.83398755601094
C            0.57981760282769       -2.42826744116825        1.45758139406592
C            1.18988535730392       -3.08246434248441        0.38936041246919
C            0.78779171171469       -4.37969282386313        0.03929179164126
C           -0.23503068678456       -5.00807356666648        0.73718498030495
C           -0.86053963359754       -4.35806280175402        1.78899172011786
C           -0.44089745987703       -3.06552390981352        2.15211032304259
C            2.29024980511631       -0.72143742962313        1.73234026292295
C            2.60009995014810        0.60131753077641        1.43437242091597
C            3.93087447115249        1.00516114741328        1.28175542420876
C            4.95480404534901        0.07094970142078        1.39343236179020
C            4.65855643011308       -1.23935447366792        1.73259891963762
C            3.33017375429502       -1.63761957932775        1.92370303620402
C           -0.03685300599410       -0.20761005453352        2.16900408538004
C           -1.23547083270104       -0.19088226831593        1.46341459709122
C           -2.23027028173925        0.75683011735670        1.77008086795214
C           -2.00386286059290        1.68814215724206        2.76801419986607
C           -0.81791275168601        1.65856222165751        3.49545994140705
C            0.16264295288067        0.70130624183903        3.20155971599899
H            1.97264385222732       -2.59747572289184       -0.17302529120905
H            1.25733718907783       -4.89755138767741       -0.78278921956085
H           -1.65811540098750       -4.81848073399545        2.35181824633008
H           -0.92096592915577       -2.56506167743803        2.97926880638138
H            1.80991342203542        1.32026541474103        1.29138735093605
H            4.14421820014898        2.03968801887091        1.05477261785218
H            5.46344646627316       -1.94994093799311        1.85072186132157
H            3.10821506843205       -2.65874824368527        2.19131585598782
H           -1.40311432444066       -0.90087197775240        0.66763720629488
H           -3.14441008727717        0.75136492740406        1.19634892727665
H           -0.66733858410627        2.37918793370643        4.28415258529412
H            1.08356128616346        0.68329091984232        3.76424717524008
O           -0.55938892648144       -6.28876859477034        0.29869708530266
C           -1.59062440730391       -6.95767183926528        0.96177271581102
O            6.30114649358432        0.40963454254723        1.21927974475529
C            6.62832190975822        1.11204888573083        0.04602379189273
C            6.73806312659349        0.21090306835313       -1.19368983868993
C            5.39927029792652       -0.28701914853208       -1.74364604821958
C            4.57676916955196        0.80809725983578       -2.41894189526600
C            3.25749590149503        0.27691438007655       -2.98598620414575
C            2.17819865646312        0.18213862957142       -1.90101538956920
O            1.82180532878938        1.43730712603712       -1.37161459188534
C            0.89654275638249        2.17618456282558       -2.12035857493008
C            0.43380220113516        3.36544958700628       -1.27881367450929
C            1.60891429069927        4.14993452713570       -0.70228708086213
C            2.54134504042076        4.71912725043435       -1.76630912079887
O           -2.89845342457394        2.69080868032519        3.11873746471844
C           -3.95744337581291        2.94184167731903        2.23783283074147
H           -3.59883883897919        3.12402178209111        1.21806401498268
H           -2.54218076662844       -6.41596410559674        0.89028358166174
H           -1.69282128567556       -7.92417390490261        0.46540327167365
H           -1.35727903435363       -7.12251966198195        2.02126390424419
H            5.92064238226905        1.92612206213097       -0.14525577694912
H            7.61172025184575        1.55470147421544        0.24716060165439
H            7.34828168486743       -0.65242992284614       -0.91784041834799
H            7.26913285981679        0.76580967819516       -1.97358637372205
H            4.82396069872357       -0.72999916238834       -0.93118110517419
H            5.60241121014609       -1.07357266472549       -2.47749704449738
H            4.33680713627359        1.59039707861806       -1.69811932551300
H            5.17079149453846        1.25347218029537       -3.22355570500586
H            3.40522924282597       -0.71276563312003       -3.42260917170662
H            2.90397769824317        0.94140652125447       -3.77937592996541
H            1.28890118676511       -0.33099816874540       -2.29536308841830
H            2.55610050559555       -0.37995726159142       -1.04456563699390
H            1.33637078854922        2.54373699462672       -3.06390614688861
H            0.02726624358011        1.55081436026858       -2.38175004649263
H            2.16489604009409        3.47331498979478       -0.05286757463250
H            1.21336858687105        4.96523433492101       -0.09154952122636
H            3.06392724546480        3.91998049278251       -2.28398993289073
H            3.28441677334980        5.36460219033943       -1.30252261372030
H            1.98522099786330        5.30427280829266       -2.49754185019132
H           -4.45397499622613        3.83879509981510        2.61163390646264
H           -4.68119674310259        2.11702545968631        2.22225985654357
C           -0.65693745855646        3.01337878415580       -0.25201206113343
C           -0.67434223489215        4.19774986876352       -1.94380798002421
O           -1.63142886049895        3.78395077000593       -0.97366884933732
H           -0.49709479319101        3.40452636221141        0.75529106578495
H           -0.92849722693426        1.95904393390008       -0.18202654369002
H           -0.95875876459469        3.89140621900154       -2.95650270574796
H           -0.52060252387770        5.28215806756645       -1.92301614873136
